(set-logic QF_LRA)
(declare-fun X0 () Real )
(declare-fun Y0 () Real )
(declare-fun X1 () Real )
(declare-fun Y1 () Real )
(declare-fun X2 () Real )
(declare-fun Y2 () Real )
(declare-fun X3 () Real )
(declare-fun Y3 () Real )
(declare-fun X4 () Real )
(declare-fun Y4 () Real )
(declare-fun X5 () Real )
(declare-fun Y5 () Real )
(declare-fun X6 () Real )
(declare-fun Y6 () Real )
(declare-fun X7 () Real )
(declare-fun Y7 () Real )
(declare-fun X8 () Real )
(declare-fun Y8 () Real )
(declare-fun Z () Real )
(declare-fun k () Real )
(assert (let
(( $goal (>= Z k) ))
(let
((
$phi ( and 
( or ( <= ( + X0 73 ) X1 )  ( <= ( + X1 79 ) X0 )  ( <= ( + Y0 26 ) Y1 )  ( <= ( + Y1 61 ) Y0 )  )
( or ( <= ( + X0 73 ) X2 )  ( <= ( + X2 92 ) X0 )  ( <= ( + Y0 26 ) Y2 )  ( <= ( + Y2 29 ) Y0 )  )
( or ( <= ( + X0 73 ) X3 )  ( <= ( + X3 5 ) X0 )  ( <= ( + Y0 26 ) Y3 )  ( <= ( + Y3 31 ) Y0 )  )
( or ( <= ( + X0 73 ) X4 )  ( <= ( + X4 99 ) X0 )  ( <= ( + Y0 26 ) Y4 )  ( <= ( + Y4 81 ) Y0 )  )
( or ( <= ( + X0 73 ) X5 )  ( <= ( + X5 67 ) X0 )  ( <= ( + Y0 26 ) Y5 )  ( <= ( + Y5 48 ) Y0 )  )
( or ( <= ( + X0 73 ) X6 )  ( <= ( + X6 76 ) X0 )  ( <= ( + Y0 26 ) Y6 )  ( <= ( + Y6 75 ) Y0 )  )
( or ( <= ( + X0 73 ) X7 )  ( <= ( + X7 99 ) X0 )  ( <= ( + Y0 26 ) Y7 )  ( <= ( + Y7 5 ) Y0 )  )
( or ( <= ( + X0 73 ) X8 )  ( <= ( + X8 68 ) X0 )  ( <= ( + Y0 26 ) Y8 )  ( <= ( + Y8 39 ) Y0 )  )
( or ( <= ( + X1 79 ) X2 )  ( <= ( + X2 92 ) X1 )  ( <= ( + Y1 61 ) Y2 )  ( <= ( + Y2 29 ) Y1 )  )
( or ( <= ( + X1 79 ) X3 )  ( <= ( + X3 5 ) X1 )  ( <= ( + Y1 61 ) Y3 )  ( <= ( + Y3 31 ) Y1 )  )
( or ( <= ( + X1 79 ) X4 )  ( <= ( + X4 99 ) X1 )  ( <= ( + Y1 61 ) Y4 )  ( <= ( + Y4 81 ) Y1 )  )
( or ( <= ( + X1 79 ) X5 )  ( <= ( + X5 67 ) X1 )  ( <= ( + Y1 61 ) Y5 )  ( <= ( + Y5 48 ) Y1 )  )
( or ( <= ( + X1 79 ) X6 )  ( <= ( + X6 76 ) X1 )  ( <= ( + Y1 61 ) Y6 )  ( <= ( + Y6 75 ) Y1 )  )
( or ( <= ( + X1 79 ) X7 )  ( <= ( + X7 99 ) X1 )  ( <= ( + Y1 61 ) Y7 )  ( <= ( + Y7 5 ) Y1 )  )
( or ( <= ( + X1 79 ) X8 )  ( <= ( + X8 68 ) X1 )  ( <= ( + Y1 61 ) Y8 )  ( <= ( + Y8 39 ) Y1 )  )
( or ( <= ( + X2 92 ) X3 )  ( <= ( + X3 5 ) X2 )  ( <= ( + Y2 29 ) Y3 )  ( <= ( + Y3 31 ) Y2 )  )
( or ( <= ( + X2 92 ) X4 )  ( <= ( + X4 99 ) X2 )  ( <= ( + Y2 29 ) Y4 )  ( <= ( + Y4 81 ) Y2 )  )
( or ( <= ( + X2 92 ) X5 )  ( <= ( + X5 67 ) X2 )  ( <= ( + Y2 29 ) Y5 )  ( <= ( + Y5 48 ) Y2 )  )
( or ( <= ( + X2 92 ) X6 )  ( <= ( + X6 76 ) X2 )  ( <= ( + Y2 29 ) Y6 )  ( <= ( + Y6 75 ) Y2 )  )
( or ( <= ( + X2 92 ) X7 )  ( <= ( + X7 99 ) X2 )  ( <= ( + Y2 29 ) Y7 )  ( <= ( + Y7 5 ) Y2 )  )
( or ( <= ( + X2 92 ) X8 )  ( <= ( + X8 68 ) X2 )  ( <= ( + Y2 29 ) Y8 )  ( <= ( + Y8 39 ) Y2 )  )
( or ( <= ( + X3 5 ) X4 )  ( <= ( + X4 99 ) X3 )  ( <= ( + Y3 31 ) Y4 )  ( <= ( + Y4 81 ) Y3 )  )
( or ( <= ( + X3 5 ) X5 )  ( <= ( + X5 67 ) X3 )  ( <= ( + Y3 31 ) Y5 )  ( <= ( + Y5 48 ) Y3 )  )
( or ( <= ( + X3 5 ) X6 )  ( <= ( + X6 76 ) X3 )  ( <= ( + Y3 31 ) Y6 )  ( <= ( + Y6 75 ) Y3 )  )
( or ( <= ( + X3 5 ) X7 )  ( <= ( + X7 99 ) X3 )  ( <= ( + Y3 31 ) Y7 )  ( <= ( + Y7 5 ) Y3 )  )
( or ( <= ( + X3 5 ) X8 )  ( <= ( + X8 68 ) X3 )  ( <= ( + Y3 31 ) Y8 )  ( <= ( + Y8 39 ) Y3 )  )
( or ( <= ( + X4 99 ) X5 )  ( <= ( + X5 67 ) X4 )  ( <= ( + Y4 81 ) Y5 )  ( <= ( + Y5 48 ) Y4 )  )
( or ( <= ( + X4 99 ) X6 )  ( <= ( + X6 76 ) X4 )  ( <= ( + Y4 81 ) Y6 )  ( <= ( + Y6 75 ) Y4 )  )
( or ( <= ( + X4 99 ) X7 )  ( <= ( + X7 99 ) X4 )  ( <= ( + Y4 81 ) Y7 )  ( <= ( + Y7 5 ) Y4 )  )
( or ( <= ( + X4 99 ) X8 )  ( <= ( + X8 68 ) X4 )  ( <= ( + Y4 81 ) Y8 )  ( <= ( + Y8 39 ) Y4 )  )
( or ( <= ( + X5 67 ) X6 )  ( <= ( + X6 76 ) X5 )  ( <= ( + Y5 48 ) Y6 )  ( <= ( + Y6 75 ) Y5 )  )
( or ( <= ( + X5 67 ) X7 )  ( <= ( + X7 99 ) X5 )  ( <= ( + Y5 48 ) Y7 )  ( <= ( + Y7 5 ) Y5 )  )
( or ( <= ( + X5 67 ) X8 )  ( <= ( + X8 68 ) X5 )  ( <= ( + Y5 48 ) Y8 )  ( <= ( + Y8 39 ) Y5 )  )
( or ( <= ( + X6 76 ) X7 )  ( <= ( + X7 99 ) X6 )  ( <= ( + Y6 75 ) Y7 )  ( <= ( + Y7 5 ) Y6 )  )
( or ( <= ( + X6 76 ) X8 )  ( <= ( + X8 68 ) X6 )  ( <= ( + Y6 75 ) Y8 )  ( <= ( + Y8 39 ) Y6 )  )
( or ( <= ( + X7 99 ) X8 )  ( <= ( + X8 68 ) X7 )  ( <= ( + Y7 5 ) Y8 )  ( <= ( + Y8 39 ) Y7 )  )
( >= X0 0)
( <= ( + X0 73) Z)
( >= Y0 0)
( <= ( + Y0 26 ) 100)
( >= X1 0)
( <= ( + X1 79) Z)
( >= Y1 0)
( <= ( + Y1 61 ) 100)
( >= X2 0)
( <= ( + X2 92) Z)
( >= Y2 0)
( <= ( + Y2 29 ) 100)
( >= X3 0)
( <= ( + X3 5) Z)
( >= Y3 0)
( <= ( + Y3 31 ) 100)
( >= X4 0)
( <= ( + X4 99) Z)
( >= Y4 0)
( <= ( + Y4 81 ) 100)
( >= X5 0)
( <= ( + X5 67) Z)
( >= Y5 0)
( <= ( + Y5 48 ) 100)
( >= X6 0)
( <= ( + X6 76) Z)
( >= Y6 0)
( <= ( + Y6 75 ) 100)
( >= X7 0)
( <= ( + X7 99) Z)
( >= Y7 0)
( <= ( + Y7 5 ) 100)
( >= X8 0)
( <= ( + X8 68) Z)
( >= Y8 0)
( <= ( + Y8 39 ) 100)
) )
)(=> $phi $goal))))